(declare-fun temp654_1 () (_ BitVec 64))
(declare-fun var133306 () (_ BitVec 64))
(declare-fun var203683 () (_ BitVec 64))
(declare-fun var269248 () (_ BitVec 64))
(declare-fun var400389 () (_ BitVec 64))
(declare-fun temp654_2 () (_ BitVec 64))
(declare-fun temp654_3 () (_ BitVec 64))
(declare-fun var72970 () (_ BitVec 64))
(declare-fun k!0 () Bool)
(declare-fun ARGNAME_total_length_NAMEEND () (_ BitVec 64))
(declare-fun temp654_4 () (_ BitVec 64))
(declare-fun ARGNAME_data_NAMEEND_DIM () (_ BitVec 64))
(declare-fun var73022 () (_ BitVec 64))
(declare-fun var1182202 () (_ BitVec 64))
(declare-fun temp654_6 () (_ BitVec 64))
(declare-fun temp654_5 () (_ BitVec 64))
(declare-fun var1708277 () (_ BitVec 64))
(declare-fun temp654_7 () (_ BitVec 64))
(declare-fun var1708278 () (_ BitVec 64))
(declare-fun temp654_8 () (_ BitVec 64))
(declare-fun temp654_9 () (_ BitVec 64))
(declare-fun var2099757 () (_ BitVec 64))
(declare-fun var2099759 () (_ BitVec 64))
(declare-fun var2167601 () (_ BitVec 64))
(declare-fun var2167602 () (_ BitVec 64))
(declare-fun var2167615 () (_ BitVec 64))
(declare-fun var2167617 () (_ BitVec 64))
(declare-fun temp654_10 () (_ BitVec 64))
(declare-fun var2167640 () (_ BitVec 64))
(declare-fun var2167642 () (_ BitVec 64))
(declare-fun var2298739 () (_ BitVec 64))
(declare-fun temp654_12 () (_ BitVec 64))
(declare-fun temp654_11 () (_ BitVec 64))
(declare-fun temp654_14 () (_ BitVec 64))
(declare-fun temp654_13 () (_ BitVec 64))
(declare-fun temp654_16 () (_ BitVec 64))
(declare-fun temp654_15 () (_ BitVec 64))
(declare-fun temp654_17 () (_ BitVec 64))
(declare-fun var73175 () (_ BitVec 64))
(declare-fun temp654_18 () (_ BitVec 64))
(declare-fun var4786847 () (_ BitVec 64))
(declare-fun temp654_19 () (_ BitVec 64))
(declare-fun var4786851 () (_ BitVec 64))
(declare-fun var73195 () (_ BitVec 64))
(declare-fun temp654_20 () (_ BitVec 64))
(declare-fun var5704351 () (_ BitVec 64))
(declare-fun temp654_21 () (_ BitVec 64))
(declare-fun var5704355 () (_ BitVec 64))
(declare-fun temp654_22 () (_ BitVec 64))
(declare-fun var5704407 () (_ BitVec 64))
(declare-fun temp654_23 () (_ BitVec 64))
(declare-fun temp654_25 () (_ BitVec 64))
(declare-fun temp654_24 () (_ BitVec 64))
(declare-fun temp654_26 () (_ BitVec 64))
(declare-fun var6490783 () (_ BitVec 64))
(declare-fun temp654_27 () (_ BitVec 64))
(declare-fun var6490787 () (_ BitVec 64))
(declare-fun temp654_28 () (_ BitVec 64))
(declare-fun var6490825 () (_ BitVec 64))
(declare-fun temp654_29 () (_ BitVec 64))
(declare-fun temp654_31 () (_ BitVec 64))
(declare-fun temp654_30 () (_ BitVec 64))
(declare-fun temp654_32 () (_ BitVec 64))
(declare-fun var7805775 () (_ BitVec 64))
(declare-fun var7871322 () (_ BitVec 64))
(declare-fun var7670011 () (_ BitVec 64))
(declare-fun temp654_33 () (_ BitVec 64))
(declare-fun var73168 () (_ BitVec 64))
(declare-fun temp654_34 () (_ BitVec 64))
(declare-fun ARGNAME_batch_first_NAMEEND () (_ BitVec 64))
(assert (= temp654_1 #x0000000000000000))
(assert (= var133306 temp654_1))
(assert (= var203683 var133306))
(assert (= var269248 var203683))
(assert (= var400389 var269248))
(assert (= temp654_2 #x0000000000000000))
(assert (= var72970
   (ite (bvsgt ARGNAME_total_length_NAMEEND temp654_2)
        #x0000000000000001
        #x0000000000000000)))
(assert (= temp654_3 #x0000000000000001))
(assert (= var72970 temp654_3))
(assert (= temp654_4 #x0000000000000001))
(assert (= var73022 (bvadd ARGNAME_data_NAMEEND_DIM temp654_4)))
(assert (= var1182202 var73022))
(assert (= temp654_6 #xffffffffffffffff))
(assert (= temp654_5 temp654_6))
(assert (= var1708277 var1182202))
(assert (= temp654_7 #x0000000000000000))
(assert (= var1708278
   (ite (= var1708277 temp654_7) #x0000000000000001 #x0000000000000000)))
(assert (= temp654_8 #x0000000000000001))
(assert (= var1708278 temp654_8))
(assert (= temp654_9 #x0000000000000001))
(assert (= var2099757 temp654_9))
(assert (= var2099759 (bvsub ARGNAME_data_NAMEEND_DIM var2099757)))
(assert (= var2167601 var2099757))
(assert (= var2167602 var2099759))
(assert (= var2167615 (bvadd var2167602 var2167601)))
(assert (= var2167617
   (ite (bvsgt var2167615 ARGNAME_data_NAMEEND_DIM)
        #x0000000000000001
        #x0000000000000000)))
(assert (= temp654_10 #x0000000000000000))
(assert (= var2167617 temp654_10))
(assert (= var2167640 var2167601))
(assert (= var2167642 var2167602))
(assert (= var2298739 var2167642))
(assert (= temp654_12 #x0000000000000000))
(assert (= temp654_11 temp654_12))
(assert (= temp654_14 #x0000000000000000))
(assert (= temp654_13 temp654_14))
(assert (= temp654_16 #x0000000000000000))
(assert (= temp654_15 temp654_16))
(assert (= temp654_17 #x0000000000000000))
(assert (= var73175 temp654_17))
(assert (= temp654_18 #x0000000000000000))
(assert (= var4786847 temp654_18))
(assert (= temp654_19 #x0000000000000001))
(assert (= var4786851 temp654_19))
(assert (= var73195 (bvsub temp654_15 temp654_13)))
(assert (= temp654_20 #x0000000000000000))
(assert (= var5704351 temp654_20))
(assert (= temp654_21 #x0000000000000001))
(assert (= var5704355 temp654_21))
(assert (= temp654_22 #x0000000000000000))
(assert (= var5704407 temp654_22))
(assert (= temp654_23 #x0000000000000000))
(assert (= var5704407 temp654_23))
(assert (= temp654_25 #x0000000000000000))
(assert (= temp654_24 temp654_25))
(assert (= temp654_26 #x0000000000000001))
(assert (= var6490783 temp654_26))
(assert (= temp654_27 #x0000000000000001))
(assert (= var6490787 temp654_27))
(assert (= temp654_28 #x0000000000000000))
(assert (= var6490825 temp654_28))
(assert (= temp654_29 #x0000000000000000))
(assert (= var6490825 temp654_29))
(assert (= temp654_31 #x0000000000000000))
(assert (= temp654_30 temp654_31))
(assert (= temp654_32 #x0000000000000000))
(assert (= var7805775 temp654_32))
(assert (= var7871322 var7805775))
(assert (= var7670011 var7871322))
(assert (= temp654_33 #x0000000000000001))
(assert (= var73168 (bvadd temp654_15 temp654_33)))
(assert (= temp654_34 #x0000000000000000))
(assert (= ARGNAME_batch_first_NAMEEND temp654_34))
(model-add temp654_1 () (_ BitVec 64) #x0000000000000000)
(model-add var133306 () (_ BitVec 64) #x0000000000000000)
(model-add var203683 () (_ BitVec 64) #x0000000000000000)
(model-add var269248 () (_ BitVec 64) #x0000000000000000)
(model-add var400389 () (_ BitVec 64) #x0000000000000000)
(model-add temp654_2 () (_ BitVec 64) #x0000000000000000)
(model-add temp654_3 () (_ BitVec 64) #x0000000000000001)
(model-add var72970 () (_ BitVec 64) #x0000000000000001)
(model-del k!0)
(model-add ARGNAME_total_length_NAMEEND
           ()
           (_ BitVec 64)
           (ite (or k!0 (= #x0000000000000000 #x7fffffffffffffff))
                #x0000000000000000
                (bvadd #x0000000000000000 #x0000000000000001)))




